
;this file is automatically generated: Tue Mar 02 15:25:52 CST 2021

;declarations generated

(declare-fun type_895a89bb_3ffd_4f91_baf2_cbfc81bd56f9_Class1 ( Int) Bool)
(declare-fun type_895a89bb_3ffd_4f91_baf2_cbfc81bd56f9_Class2 ( Int) Bool)
(declare-fun type_895a89bb_3ffd_4f91_baf2_cbfc81bd56f9_Class3 ( Int) Bool)
(declare-fun type_895a89bb_3ffd_4f91_baf2_cbfc81bd56f9_Class4 ( Int) Bool)
(declare-fun type_895a89bb_3ffd_4f91_baf2_cbfc81bd56f9_Class0 ( Int) Bool)
(declare-fun type_895a89bb_3ffd_4f91_baf2_cbfc81bd56f9_Class9 ( Int) Bool)
(declare-fun type_895a89bb_3ffd_4f91_baf2_cbfc81bd56f9_Class5 ( Int) Bool)
(declare-fun type_895a89bb_3ffd_4f91_baf2_cbfc81bd56f9_Class6 ( Int) Bool)
(declare-fun type_895a89bb_3ffd_4f91_baf2_cbfc81bd56f9_Class7 ( Int) Bool)
(declare-fun type_895a89bb_3ffd_4f91_baf2_cbfc81bd56f9_Class8 ( Int) Bool)
(declare-fun oclExcludes ( Int Int) Bool)
(declare-fun Cardinality ( Int) Int)
(declare-fun type_895a89bb_3ffd_4f91_baf2_cbfc81bd56f9_Class12 ( Int) Bool)
(declare-fun type_895a89bb_3ffd_4f91_baf2_cbfc81bd56f9_Class13 ( Int) Bool)
(declare-fun type_895a89bb_3ffd_4f91_baf2_cbfc81bd56f9_Class10 ( Int) Bool)
(declare-fun type_895a89bb_3ffd_4f91_baf2_cbfc81bd56f9_Class11 ( Int) Bool)
(declare-fun type_895a89bb_3ffd_4f91_baf2_cbfc81bd56f9_Class16 ( Int) Bool)
(declare-fun type_895a89bb_3ffd_4f91_baf2_cbfc81bd56f9_Class17 ( Int) Bool)
(declare-fun type_895a89bb_3ffd_4f91_baf2_cbfc81bd56f9_Class14 ( Int) Bool)
(declare-fun type_895a89bb_3ffd_4f91_baf2_cbfc81bd56f9_Class15 ( Int) Bool)
(declare-fun type_895a89bb_3ffd_4f91_baf2_cbfc81bd56f9_Class18 ( Int) Bool)
(declare-fun type_895a89bb_3ffd_4f91_baf2_cbfc81bd56f9_Class19 ( Int) Bool)
(declare-fun type_895a89bb_3ffd_4f91_baf2_cbfc81bd56f9_Class20 ( Int) Bool)
(declare-fun type_895a89bb_3ffd_4f91_baf2_cbfc81bd56f9_Class23 ( Int) Bool)
(declare-fun type_895a89bb_3ffd_4f91_baf2_cbfc81bd56f9_Class24 ( Int) Bool)
(declare-fun type_895a89bb_3ffd_4f91_baf2_cbfc81bd56f9_Class21 ( Int) Bool)
(declare-fun type_895a89bb_3ffd_4f91_baf2_cbfc81bd56f9_Class22 ( Int) Bool)
(declare-fun type_895a89bb_3ffd_4f91_baf2_cbfc81bd56f9_Class27 ( Int) Bool)
(declare-fun type_895a89bb_3ffd_4f91_baf2_cbfc81bd56f9_Class28 ( Int) Bool)
(declare-fun type_895a89bb_3ffd_4f91_baf2_cbfc81bd56f9_Class25 ( Int) Bool)
(declare-fun type_895a89bb_3ffd_4f91_baf2_cbfc81bd56f9_Class26 ( Int) Bool)
(declare-fun type_895a89bb_3ffd_4f91_baf2_cbfc81bd56f9_Class29 ( Int) Bool)
(declare-fun type_895a89bb_3ffd_4f91_baf2_cbfc81bd56f9_Class30 ( Int) Bool)
(declare-fun type_895a89bb_3ffd_4f91_baf2_cbfc81bd56f9_Class31 ( Int) Bool)
(declare-fun type_895a89bb_3ffd_4f91_baf2_cbfc81bd56f9_Class34 ( Int) Bool)
(declare-fun type_895a89bb_3ffd_4f91_baf2_cbfc81bd56f9_Class35 ( Int) Bool)
(declare-fun type_895a89bb_3ffd_4f91_baf2_cbfc81bd56f9_Class32 ( Int) Bool)
(declare-fun type_895a89bb_3ffd_4f91_baf2_cbfc81bd56f9_Class33 ( Int) Bool)
(declare-fun type_895a89bb_3ffd_4f91_baf2_cbfc81bd56f9_Class38 ( Int) Bool)
(declare-fun type_895a89bb_3ffd_4f91_baf2_cbfc81bd56f9_Class39 ( Int) Bool)
(declare-fun type_895a89bb_3ffd_4f91_baf2_cbfc81bd56f9_Class36 ( Int) Bool)
(declare-fun type_895a89bb_3ffd_4f91_baf2_cbfc81bd56f9_Class37 ( Int) Bool)
(declare-fun obj_00723d6c_db7f_495a_9151_bd6f862bc52e ( Int) Int)
(declare-fun oclSelect ( Int Bool) Int)
(declare-fun type_895a89bb_3ffd_4f91_baf2_cbfc81bd56f9_Class41 ( Int) Bool)
(declare-fun type_895a89bb_3ffd_4f91_baf2_cbfc81bd56f9_Class42 ( Int) Bool)
(declare-fun type_895a89bb_3ffd_4f91_baf2_cbfc81bd56f9_Class40 ( Int) Bool)
(declare-fun type_895a89bb_3ffd_4f91_baf2_cbfc81bd56f9_Class45 ( Int) Bool)
(declare-fun type_895a89bb_3ffd_4f91_baf2_cbfc81bd56f9_Class46 ( Int) Bool)
(declare-fun type_895a89bb_3ffd_4f91_baf2_cbfc81bd56f9_Class43 ( Int) Bool)
(declare-fun type_895a89bb_3ffd_4f91_baf2_cbfc81bd56f9_Class44 ( Int) Bool)
(declare-fun type_895a89bb_3ffd_4f91_baf2_cbfc81bd56f9_Class49 ( Int) Bool)
(declare-fun type_895a89bb_3ffd_4f91_baf2_cbfc81bd56f9_Class47 ( Int) Bool)
(declare-fun type_895a89bb_3ffd_4f91_baf2_cbfc81bd56f9_Class48 ( Int) Bool)
(declare-fun type_895a89bb_3ffd_4f91_baf2_cbfc81bd56f9_Class52 ( Int) Bool)
(declare-fun type_895a89bb_3ffd_4f91_baf2_cbfc81bd56f9_Class53 ( Int) Bool)
(declare-fun type_895a89bb_3ffd_4f91_baf2_cbfc81bd56f9_Class50 ( Int) Bool)
(declare-fun type_895a89bb_3ffd_4f91_baf2_cbfc81bd56f9_Class51 ( Int) Bool)
(declare-fun type_895a89bb_3ffd_4f91_baf2_cbfc81bd56f9_Class54 ( Int) Bool)
(declare-fun type_895a89bb_3ffd_4f91_baf2_cbfc81bd56f9_Class55 ( Int) Bool)
(declare-fun Enum0 ( Int) Int)
(declare-fun Enum1 ( Int) Int)
(declare-fun Enum2 ( Int) Int)
(declare-fun class42_Class42IntAttr2 ( Int) Int)
(declare-fun container_ ( Int) Int)
(declare-fun class42_Class42IntAttr4 ( Int) Int)
(declare-fun class42_Class42IntAttr3 ( Int) Int)
(declare-fun oclIncludes ( Int Int) Bool)
(declare-fun ObjAt ( Int Int) Int)

;formula(s) generated
(assert (! (forall ((c2_1 Int)(c2_2 Int)) (=> (and (and ( type_895a89bb_3ffd_4f91_baf2_cbfc81bd56f9_Class42 c2_1 )  ( type_895a89bb_3ffd_4f91_baf2_cbfc81bd56f9_Class39 c2_1 ) ) (and ( type_895a89bb_3ffd_4f91_baf2_cbfc81bd56f9_Class42 c2_2 )  ( type_895a89bb_3ffd_4f91_baf2_cbfc81bd56f9_Class39 c2_2 ) )) (< ( class42_Class42IntAttr2 ( obj_00723d6c_db7f_495a_9151_bd6f862bc52e c2_1 )  )  ( class42_Class42IntAttr4 ( obj_00723d6c_db7f_495a_9151_bd6f862bc52e c2_2 )  ) ))):named l0))
(assert (! (forall ((c1 Int)(c2 Int)) (=> (and (and ( type_895a89bb_3ffd_4f91_baf2_cbfc81bd56f9_Class42 c1 )  ( type_895a89bb_3ffd_4f91_baf2_cbfc81bd56f9_Class39 c1 ) ) (and ( type_895a89bb_3ffd_4f91_baf2_cbfc81bd56f9_Class42 c2 )  ( type_895a89bb_3ffd_4f91_baf2_cbfc81bd56f9_Class39 c2 ) )) (forall ((v Int)) (=> (and ( type_895a89bb_3ffd_4f91_baf2_cbfc81bd56f9_Class42 v )  ( type_895a89bb_3ffd_4f91_baf2_cbfc81bd56f9_Class39 v ) ) (= ( class42_Class42IntAttr3 ( obj_00723d6c_db7f_495a_9151_bd6f862bc52e v )  )  ( class42_Class42IntAttr2 ( obj_00723d6c_db7f_495a_9151_bd6f862bc52e c1 )  ) ))))):named l1))
(assert (! (exists ((o Int)) ( type_895a89bb_3ffd_4f91_baf2_cbfc81bd56f9_Class0 ( obj_00723d6c_db7f_495a_9151_bd6f862bc52e o )  ) ):named c0))
(assert (! (exists ((o Int)) (and (and (and (and (and ( type_895a89bb_3ffd_4f91_baf2_cbfc81bd56f9_Class1 ( obj_00723d6c_db7f_495a_9151_bd6f862bc52e o )  )  ( type_895a89bb_3ffd_4f91_baf2_cbfc81bd56f9_Class45 ( obj_00723d6c_db7f_495a_9151_bd6f862bc52e o )  ) ) ( type_895a89bb_3ffd_4f91_baf2_cbfc81bd56f9_Class12 ( obj_00723d6c_db7f_495a_9151_bd6f862bc52e o )  ) ) ( type_895a89bb_3ffd_4f91_baf2_cbfc81bd56f9_Class33 ( obj_00723d6c_db7f_495a_9151_bd6f862bc52e o )  ) ) ( type_895a89bb_3ffd_4f91_baf2_cbfc81bd56f9_Class22 ( obj_00723d6c_db7f_495a_9151_bd6f862bc52e o )  ) ) ( type_895a89bb_3ffd_4f91_baf2_cbfc81bd56f9_Class39 ( obj_00723d6c_db7f_495a_9151_bd6f862bc52e o )  ) )):named c1))
(assert (! (exists ((o Int)) (and (and (and (and (and (and (and (and (and ( type_895a89bb_3ffd_4f91_baf2_cbfc81bd56f9_Class10 ( obj_00723d6c_db7f_495a_9151_bd6f862bc52e o )  )  ( type_895a89bb_3ffd_4f91_baf2_cbfc81bd56f9_Class45 ( obj_00723d6c_db7f_495a_9151_bd6f862bc52e o )  ) ) ( type_895a89bb_3ffd_4f91_baf2_cbfc81bd56f9_Class12 ( obj_00723d6c_db7f_495a_9151_bd6f862bc52e o )  ) ) ( type_895a89bb_3ffd_4f91_baf2_cbfc81bd56f9_Class55 ( obj_00723d6c_db7f_495a_9151_bd6f862bc52e o )  ) ) ( type_895a89bb_3ffd_4f91_baf2_cbfc81bd56f9_Class33 ( obj_00723d6c_db7f_495a_9151_bd6f862bc52e o )  ) ) ( type_895a89bb_3ffd_4f91_baf2_cbfc81bd56f9_Class22 ( obj_00723d6c_db7f_495a_9151_bd6f862bc52e o )  ) ) ( type_895a89bb_3ffd_4f91_baf2_cbfc81bd56f9_Class29 ( obj_00723d6c_db7f_495a_9151_bd6f862bc52e o )  ) ) ( type_895a89bb_3ffd_4f91_baf2_cbfc81bd56f9_Class39 ( obj_00723d6c_db7f_495a_9151_bd6f862bc52e o )  ) ) ( type_895a89bb_3ffd_4f91_baf2_cbfc81bd56f9_Class50 ( obj_00723d6c_db7f_495a_9151_bd6f862bc52e o )  ) ) ( type_895a89bb_3ffd_4f91_baf2_cbfc81bd56f9_Class41 ( obj_00723d6c_db7f_495a_9151_bd6f862bc52e o )  ) )):named c2))
(assert (! (exists ((o Int)) ( type_895a89bb_3ffd_4f91_baf2_cbfc81bd56f9_Class11 ( obj_00723d6c_db7f_495a_9151_bd6f862bc52e o )  ) ):named c3))
(assert (! (exists ((o Int)) (and (and (and ( type_895a89bb_3ffd_4f91_baf2_cbfc81bd56f9_Class12 ( obj_00723d6c_db7f_495a_9151_bd6f862bc52e o )  )  ( type_895a89bb_3ffd_4f91_baf2_cbfc81bd56f9_Class33 ( obj_00723d6c_db7f_495a_9151_bd6f862bc52e o )  ) ) ( type_895a89bb_3ffd_4f91_baf2_cbfc81bd56f9_Class22 ( obj_00723d6c_db7f_495a_9151_bd6f862bc52e o )  ) ) ( type_895a89bb_3ffd_4f91_baf2_cbfc81bd56f9_Class39 ( obj_00723d6c_db7f_495a_9151_bd6f862bc52e o )  ) )):named c4))
(assert (! (exists ((o Int)) (and (and (and (and (and (and (and (and (and ( type_895a89bb_3ffd_4f91_baf2_cbfc81bd56f9_Class13 ( obj_00723d6c_db7f_495a_9151_bd6f862bc52e o )  )  ( type_895a89bb_3ffd_4f91_baf2_cbfc81bd56f9_Class45 ( obj_00723d6c_db7f_495a_9151_bd6f862bc52e o )  ) ) ( type_895a89bb_3ffd_4f91_baf2_cbfc81bd56f9_Class12 ( obj_00723d6c_db7f_495a_9151_bd6f862bc52e o )  ) ) ( type_895a89bb_3ffd_4f91_baf2_cbfc81bd56f9_Class55 ( obj_00723d6c_db7f_495a_9151_bd6f862bc52e o )  ) ) ( type_895a89bb_3ffd_4f91_baf2_cbfc81bd56f9_Class33 ( obj_00723d6c_db7f_495a_9151_bd6f862bc52e o )  ) ) ( type_895a89bb_3ffd_4f91_baf2_cbfc81bd56f9_Class22 ( obj_00723d6c_db7f_495a_9151_bd6f862bc52e o )  ) ) ( type_895a89bb_3ffd_4f91_baf2_cbfc81bd56f9_Class29 ( obj_00723d6c_db7f_495a_9151_bd6f862bc52e o )  ) ) ( type_895a89bb_3ffd_4f91_baf2_cbfc81bd56f9_Class39 ( obj_00723d6c_db7f_495a_9151_bd6f862bc52e o )  ) ) ( type_895a89bb_3ffd_4f91_baf2_cbfc81bd56f9_Class50 ( obj_00723d6c_db7f_495a_9151_bd6f862bc52e o )  ) ) ( type_895a89bb_3ffd_4f91_baf2_cbfc81bd56f9_Class41 ( obj_00723d6c_db7f_495a_9151_bd6f862bc52e o )  ) )):named c5))
(assert (! (exists ((o Int)) (and (and (and (and (and (and (and (and (and ( type_895a89bb_3ffd_4f91_baf2_cbfc81bd56f9_Class14 ( obj_00723d6c_db7f_495a_9151_bd6f862bc52e o )  )  ( type_895a89bb_3ffd_4f91_baf2_cbfc81bd56f9_Class45 ( obj_00723d6c_db7f_495a_9151_bd6f862bc52e o )  ) ) ( type_895a89bb_3ffd_4f91_baf2_cbfc81bd56f9_Class12 ( obj_00723d6c_db7f_495a_9151_bd6f862bc52e o )  ) ) ( type_895a89bb_3ffd_4f91_baf2_cbfc81bd56f9_Class55 ( obj_00723d6c_db7f_495a_9151_bd6f862bc52e o )  ) ) ( type_895a89bb_3ffd_4f91_baf2_cbfc81bd56f9_Class33 ( obj_00723d6c_db7f_495a_9151_bd6f862bc52e o )  ) ) ( type_895a89bb_3ffd_4f91_baf2_cbfc81bd56f9_Class22 ( obj_00723d6c_db7f_495a_9151_bd6f862bc52e o )  ) ) ( type_895a89bb_3ffd_4f91_baf2_cbfc81bd56f9_Class29 ( obj_00723d6c_db7f_495a_9151_bd6f862bc52e o )  ) ) ( type_895a89bb_3ffd_4f91_baf2_cbfc81bd56f9_Class39 ( obj_00723d6c_db7f_495a_9151_bd6f862bc52e o )  ) ) ( type_895a89bb_3ffd_4f91_baf2_cbfc81bd56f9_Class50 ( obj_00723d6c_db7f_495a_9151_bd6f862bc52e o )  ) ) ( type_895a89bb_3ffd_4f91_baf2_cbfc81bd56f9_Class41 ( obj_00723d6c_db7f_495a_9151_bd6f862bc52e o )  ) )):named c6))
(assert (! (exists ((o Int)) ( type_895a89bb_3ffd_4f91_baf2_cbfc81bd56f9_Class15 ( obj_00723d6c_db7f_495a_9151_bd6f862bc52e o )  ) ):named c7))
(assert (! (exists ((o Int)) (and (and (and (and (and ( type_895a89bb_3ffd_4f91_baf2_cbfc81bd56f9_Class16 ( obj_00723d6c_db7f_495a_9151_bd6f862bc52e o )  )  ( type_895a89bb_3ffd_4f91_baf2_cbfc81bd56f9_Class45 ( obj_00723d6c_db7f_495a_9151_bd6f862bc52e o )  ) ) ( type_895a89bb_3ffd_4f91_baf2_cbfc81bd56f9_Class12 ( obj_00723d6c_db7f_495a_9151_bd6f862bc52e o )  ) ) ( type_895a89bb_3ffd_4f91_baf2_cbfc81bd56f9_Class33 ( obj_00723d6c_db7f_495a_9151_bd6f862bc52e o )  ) ) ( type_895a89bb_3ffd_4f91_baf2_cbfc81bd56f9_Class22 ( obj_00723d6c_db7f_495a_9151_bd6f862bc52e o )  ) ) ( type_895a89bb_3ffd_4f91_baf2_cbfc81bd56f9_Class39 ( obj_00723d6c_db7f_495a_9151_bd6f862bc52e o )  ) )):named c8))
(assert (! (exists ((o Int)) ( type_895a89bb_3ffd_4f91_baf2_cbfc81bd56f9_Class17 ( obj_00723d6c_db7f_495a_9151_bd6f862bc52e o )  ) ):named c9))
(assert (! (exists ((o Int)) (and (and (and ( type_895a89bb_3ffd_4f91_baf2_cbfc81bd56f9_Class18 ( obj_00723d6c_db7f_495a_9151_bd6f862bc52e o )  )  ( type_895a89bb_3ffd_4f91_baf2_cbfc81bd56f9_Class25 ( obj_00723d6c_db7f_495a_9151_bd6f862bc52e o )  ) ) ( type_895a89bb_3ffd_4f91_baf2_cbfc81bd56f9_Class24 ( obj_00723d6c_db7f_495a_9151_bd6f862bc52e o )  ) ) ( type_895a89bb_3ffd_4f91_baf2_cbfc81bd56f9_Class39 ( obj_00723d6c_db7f_495a_9151_bd6f862bc52e o )  ) )):named c10))
(assert (! (exists ((o Int)) (and (and (and (and (and (and (and (and (and ( type_895a89bb_3ffd_4f91_baf2_cbfc81bd56f9_Class19 ( obj_00723d6c_db7f_495a_9151_bd6f862bc52e o )  )  ( type_895a89bb_3ffd_4f91_baf2_cbfc81bd56f9_Class45 ( obj_00723d6c_db7f_495a_9151_bd6f862bc52e o )  ) ) ( type_895a89bb_3ffd_4f91_baf2_cbfc81bd56f9_Class12 ( obj_00723d6c_db7f_495a_9151_bd6f862bc52e o )  ) ) ( type_895a89bb_3ffd_4f91_baf2_cbfc81bd56f9_Class55 ( obj_00723d6c_db7f_495a_9151_bd6f862bc52e o )  ) ) ( type_895a89bb_3ffd_4f91_baf2_cbfc81bd56f9_Class33 ( obj_00723d6c_db7f_495a_9151_bd6f862bc52e o )  ) ) ( type_895a89bb_3ffd_4f91_baf2_cbfc81bd56f9_Class22 ( obj_00723d6c_db7f_495a_9151_bd6f862bc52e o )  ) ) ( type_895a89bb_3ffd_4f91_baf2_cbfc81bd56f9_Class29 ( obj_00723d6c_db7f_495a_9151_bd6f862bc52e o )  ) ) ( type_895a89bb_3ffd_4f91_baf2_cbfc81bd56f9_Class39 ( obj_00723d6c_db7f_495a_9151_bd6f862bc52e o )  ) ) ( type_895a89bb_3ffd_4f91_baf2_cbfc81bd56f9_Class50 ( obj_00723d6c_db7f_495a_9151_bd6f862bc52e o )  ) ) ( type_895a89bb_3ffd_4f91_baf2_cbfc81bd56f9_Class41 ( obj_00723d6c_db7f_495a_9151_bd6f862bc52e o )  ) )):named c11))
(assert (! (exists ((o Int)) ( type_895a89bb_3ffd_4f91_baf2_cbfc81bd56f9_Class2 ( obj_00723d6c_db7f_495a_9151_bd6f862bc52e o )  ) ):named c12))
(assert (! (exists ((o Int)) ( type_895a89bb_3ffd_4f91_baf2_cbfc81bd56f9_Class20 ( obj_00723d6c_db7f_495a_9151_bd6f862bc52e o )  ) ):named c13))
(assert (! (exists ((o Int)) (and (and (and (and (and (and (and (and (and ( type_895a89bb_3ffd_4f91_baf2_cbfc81bd56f9_Class21 ( obj_00723d6c_db7f_495a_9151_bd6f862bc52e o )  )  ( type_895a89bb_3ffd_4f91_baf2_cbfc81bd56f9_Class45 ( obj_00723d6c_db7f_495a_9151_bd6f862bc52e o )  ) ) ( type_895a89bb_3ffd_4f91_baf2_cbfc81bd56f9_Class12 ( obj_00723d6c_db7f_495a_9151_bd6f862bc52e o )  ) ) ( type_895a89bb_3ffd_4f91_baf2_cbfc81bd56f9_Class33 ( obj_00723d6c_db7f_495a_9151_bd6f862bc52e o )  ) ) ( type_895a89bb_3ffd_4f91_baf2_cbfc81bd56f9_Class22 ( obj_00723d6c_db7f_495a_9151_bd6f862bc52e o )  ) ) ( type_895a89bb_3ffd_4f91_baf2_cbfc81bd56f9_Class16 ( obj_00723d6c_db7f_495a_9151_bd6f862bc52e o )  ) ) ( type_895a89bb_3ffd_4f91_baf2_cbfc81bd56f9_Class29 ( obj_00723d6c_db7f_495a_9151_bd6f862bc52e o )  ) ) ( type_895a89bb_3ffd_4f91_baf2_cbfc81bd56f9_Class39 ( obj_00723d6c_db7f_495a_9151_bd6f862bc52e o )  ) ) ( type_895a89bb_3ffd_4f91_baf2_cbfc81bd56f9_Class41 ( obj_00723d6c_db7f_495a_9151_bd6f862bc52e o )  ) ) ( type_895a89bb_3ffd_4f91_baf2_cbfc81bd56f9_Class51 ( obj_00723d6c_db7f_495a_9151_bd6f862bc52e o )  ) )):named c14))
(assert (! (exists ((o Int)) (and ( type_895a89bb_3ffd_4f91_baf2_cbfc81bd56f9_Class22 ( obj_00723d6c_db7f_495a_9151_bd6f862bc52e o )  )  ( type_895a89bb_3ffd_4f91_baf2_cbfc81bd56f9_Class39 ( obj_00723d6c_db7f_495a_9151_bd6f862bc52e o )  ) )):named c15))
(assert (! (exists ((o Int)) (and (and (and (and ( type_895a89bb_3ffd_4f91_baf2_cbfc81bd56f9_Class23 ( obj_00723d6c_db7f_495a_9151_bd6f862bc52e o )  )  ( type_895a89bb_3ffd_4f91_baf2_cbfc81bd56f9_Class25 ( obj_00723d6c_db7f_495a_9151_bd6f862bc52e o )  ) ) ( type_895a89bb_3ffd_4f91_baf2_cbfc81bd56f9_Class24 ( obj_00723d6c_db7f_495a_9151_bd6f862bc52e o )  ) ) ( type_895a89bb_3ffd_4f91_baf2_cbfc81bd56f9_Class39 ( obj_00723d6c_db7f_495a_9151_bd6f862bc52e o )  ) ) ( type_895a89bb_3ffd_4f91_baf2_cbfc81bd56f9_Class5 ( obj_00723d6c_db7f_495a_9151_bd6f862bc52e o )  ) )):named c16))
(assert (! (exists ((o Int)) (and (and ( type_895a89bb_3ffd_4f91_baf2_cbfc81bd56f9_Class24 ( obj_00723d6c_db7f_495a_9151_bd6f862bc52e o )  )  ( type_895a89bb_3ffd_4f91_baf2_cbfc81bd56f9_Class25 ( obj_00723d6c_db7f_495a_9151_bd6f862bc52e o )  ) ) ( type_895a89bb_3ffd_4f91_baf2_cbfc81bd56f9_Class39 ( obj_00723d6c_db7f_495a_9151_bd6f862bc52e o )  ) )):named c17))
(assert (! (exists ((o Int)) (and ( type_895a89bb_3ffd_4f91_baf2_cbfc81bd56f9_Class25 ( obj_00723d6c_db7f_495a_9151_bd6f862bc52e o )  )  ( type_895a89bb_3ffd_4f91_baf2_cbfc81bd56f9_Class39 ( obj_00723d6c_db7f_495a_9151_bd6f862bc52e o )  ) )):named c18))
(assert (! (exists ((o Int)) ( type_895a89bb_3ffd_4f91_baf2_cbfc81bd56f9_Class26 ( obj_00723d6c_db7f_495a_9151_bd6f862bc52e o )  ) ):named c19))
(assert (! (exists ((o Int)) ( type_895a89bb_3ffd_4f91_baf2_cbfc81bd56f9_Class27 ( obj_00723d6c_db7f_495a_9151_bd6f862bc52e o )  ) ):named c20))
(assert (! (exists ((o Int)) (and (and (and (and (and (and (and ( type_895a89bb_3ffd_4f91_baf2_cbfc81bd56f9_Class28 ( obj_00723d6c_db7f_495a_9151_bd6f862bc52e o )  )  ( type_895a89bb_3ffd_4f91_baf2_cbfc81bd56f9_Class45 ( obj_00723d6c_db7f_495a_9151_bd6f862bc52e o )  ) ) ( type_895a89bb_3ffd_4f91_baf2_cbfc81bd56f9_Class12 ( obj_00723d6c_db7f_495a_9151_bd6f862bc52e o )  ) ) ( type_895a89bb_3ffd_4f91_baf2_cbfc81bd56f9_Class33 ( obj_00723d6c_db7f_495a_9151_bd6f862bc52e o )  ) ) ( type_895a89bb_3ffd_4f91_baf2_cbfc81bd56f9_Class22 ( obj_00723d6c_db7f_495a_9151_bd6f862bc52e o )  ) ) ( type_895a89bb_3ffd_4f91_baf2_cbfc81bd56f9_Class29 ( obj_00723d6c_db7f_495a_9151_bd6f862bc52e o )  ) ) ( type_895a89bb_3ffd_4f91_baf2_cbfc81bd56f9_Class39 ( obj_00723d6c_db7f_495a_9151_bd6f862bc52e o )  ) ) ( type_895a89bb_3ffd_4f91_baf2_cbfc81bd56f9_Class41 ( obj_00723d6c_db7f_495a_9151_bd6f862bc52e o )  ) )):named c21))
(assert (! (exists ((o Int)) (and (and (and (and (and (and ( type_895a89bb_3ffd_4f91_baf2_cbfc81bd56f9_Class29 ( obj_00723d6c_db7f_495a_9151_bd6f862bc52e o )  )  ( type_895a89bb_3ffd_4f91_baf2_cbfc81bd56f9_Class45 ( obj_00723d6c_db7f_495a_9151_bd6f862bc52e o )  ) ) ( type_895a89bb_3ffd_4f91_baf2_cbfc81bd56f9_Class12 ( obj_00723d6c_db7f_495a_9151_bd6f862bc52e o )  ) ) ( type_895a89bb_3ffd_4f91_baf2_cbfc81bd56f9_Class33 ( obj_00723d6c_db7f_495a_9151_bd6f862bc52e o )  ) ) ( type_895a89bb_3ffd_4f91_baf2_cbfc81bd56f9_Class22 ( obj_00723d6c_db7f_495a_9151_bd6f862bc52e o )  ) ) ( type_895a89bb_3ffd_4f91_baf2_cbfc81bd56f9_Class39 ( obj_00723d6c_db7f_495a_9151_bd6f862bc52e o )  ) ) ( type_895a89bb_3ffd_4f91_baf2_cbfc81bd56f9_Class41 ( obj_00723d6c_db7f_495a_9151_bd6f862bc52e o )  ) )):named c22))
(assert (! (exists ((o Int)) (and (and (and ( type_895a89bb_3ffd_4f91_baf2_cbfc81bd56f9_Class3 ( obj_00723d6c_db7f_495a_9151_bd6f862bc52e o )  )  ( type_895a89bb_3ffd_4f91_baf2_cbfc81bd56f9_Class25 ( obj_00723d6c_db7f_495a_9151_bd6f862bc52e o )  ) ) ( type_895a89bb_3ffd_4f91_baf2_cbfc81bd56f9_Class24 ( obj_00723d6c_db7f_495a_9151_bd6f862bc52e o )  ) ) ( type_895a89bb_3ffd_4f91_baf2_cbfc81bd56f9_Class39 ( obj_00723d6c_db7f_495a_9151_bd6f862bc52e o )  ) )):named c23))
(assert (! (exists ((o Int)) (and ( type_895a89bb_3ffd_4f91_baf2_cbfc81bd56f9_Class30 ( obj_00723d6c_db7f_495a_9151_bd6f862bc52e o )  )  ( type_895a89bb_3ffd_4f91_baf2_cbfc81bd56f9_Class39 ( obj_00723d6c_db7f_495a_9151_bd6f862bc52e o )  ) )):named c24))
(assert (! (exists ((o Int)) (and (and (and (and (and ( type_895a89bb_3ffd_4f91_baf2_cbfc81bd56f9_Class31 ( obj_00723d6c_db7f_495a_9151_bd6f862bc52e o )  )  ( type_895a89bb_3ffd_4f91_baf2_cbfc81bd56f9_Class45 ( obj_00723d6c_db7f_495a_9151_bd6f862bc52e o )  ) ) ( type_895a89bb_3ffd_4f91_baf2_cbfc81bd56f9_Class12 ( obj_00723d6c_db7f_495a_9151_bd6f862bc52e o )  ) ) ( type_895a89bb_3ffd_4f91_baf2_cbfc81bd56f9_Class33 ( obj_00723d6c_db7f_495a_9151_bd6f862bc52e o )  ) ) ( type_895a89bb_3ffd_4f91_baf2_cbfc81bd56f9_Class22 ( obj_00723d6c_db7f_495a_9151_bd6f862bc52e o )  ) ) ( type_895a89bb_3ffd_4f91_baf2_cbfc81bd56f9_Class39 ( obj_00723d6c_db7f_495a_9151_bd6f862bc52e o )  ) )):named c25))
(assert (! (exists ((o Int)) ( type_895a89bb_3ffd_4f91_baf2_cbfc81bd56f9_Class32 ( obj_00723d6c_db7f_495a_9151_bd6f862bc52e o )  ) ):named c26))
(assert (! (exists ((o Int)) (and (and ( type_895a89bb_3ffd_4f91_baf2_cbfc81bd56f9_Class33 ( obj_00723d6c_db7f_495a_9151_bd6f862bc52e o )  )  ( type_895a89bb_3ffd_4f91_baf2_cbfc81bd56f9_Class22 ( obj_00723d6c_db7f_495a_9151_bd6f862bc52e o )  ) ) ( type_895a89bb_3ffd_4f91_baf2_cbfc81bd56f9_Class39 ( obj_00723d6c_db7f_495a_9151_bd6f862bc52e o )  ) )):named c27))
(assert (! (exists ((o Int)) (and (and (and ( type_895a89bb_3ffd_4f91_baf2_cbfc81bd56f9_Class34 ( obj_00723d6c_db7f_495a_9151_bd6f862bc52e o )  )  ( type_895a89bb_3ffd_4f91_baf2_cbfc81bd56f9_Class25 ( obj_00723d6c_db7f_495a_9151_bd6f862bc52e o )  ) ) ( type_895a89bb_3ffd_4f91_baf2_cbfc81bd56f9_Class24 ( obj_00723d6c_db7f_495a_9151_bd6f862bc52e o )  ) ) ( type_895a89bb_3ffd_4f91_baf2_cbfc81bd56f9_Class39 ( obj_00723d6c_db7f_495a_9151_bd6f862bc52e o )  ) )):named c28))
(assert (! (exists ((o Int)) (and (and ( type_895a89bb_3ffd_4f91_baf2_cbfc81bd56f9_Class35 ( obj_00723d6c_db7f_495a_9151_bd6f862bc52e o )  )  ( type_895a89bb_3ffd_4f91_baf2_cbfc81bd56f9_Class39 ( obj_00723d6c_db7f_495a_9151_bd6f862bc52e o )  ) ) ( type_895a89bb_3ffd_4f91_baf2_cbfc81bd56f9_Class30 ( obj_00723d6c_db7f_495a_9151_bd6f862bc52e o )  ) )):named c29))
(assert (! (exists ((o Int)) ( type_895a89bb_3ffd_4f91_baf2_cbfc81bd56f9_Class36 ( obj_00723d6c_db7f_495a_9151_bd6f862bc52e o )  ) ):named c30))
(assert (! (exists ((o Int)) ( type_895a89bb_3ffd_4f91_baf2_cbfc81bd56f9_Class37 ( obj_00723d6c_db7f_495a_9151_bd6f862bc52e o )  ) ):named c31))
(assert (! (exists ((o Int)) ( type_895a89bb_3ffd_4f91_baf2_cbfc81bd56f9_Class38 ( obj_00723d6c_db7f_495a_9151_bd6f862bc52e o )  ) ):named c32))
(assert (! (exists ((o Int)) ( type_895a89bb_3ffd_4f91_baf2_cbfc81bd56f9_Class39 ( obj_00723d6c_db7f_495a_9151_bd6f862bc52e o )  ) ):named c33))
(assert (! (exists ((o Int)) ( type_895a89bb_3ffd_4f91_baf2_cbfc81bd56f9_Class4 ( obj_00723d6c_db7f_495a_9151_bd6f862bc52e o )  ) ):named c34))
(assert (! (exists ((o Int)) (and (and (and (and (and (and (and (and (and ( type_895a89bb_3ffd_4f91_baf2_cbfc81bd56f9_Class40 ( obj_00723d6c_db7f_495a_9151_bd6f862bc52e o )  )  ( type_895a89bb_3ffd_4f91_baf2_cbfc81bd56f9_Class45 ( obj_00723d6c_db7f_495a_9151_bd6f862bc52e o )  ) ) ( type_895a89bb_3ffd_4f91_baf2_cbfc81bd56f9_Class12 ( obj_00723d6c_db7f_495a_9151_bd6f862bc52e o )  ) ) ( type_895a89bb_3ffd_4f91_baf2_cbfc81bd56f9_Class55 ( obj_00723d6c_db7f_495a_9151_bd6f862bc52e o )  ) ) ( type_895a89bb_3ffd_4f91_baf2_cbfc81bd56f9_Class33 ( obj_00723d6c_db7f_495a_9151_bd6f862bc52e o )  ) ) ( type_895a89bb_3ffd_4f91_baf2_cbfc81bd56f9_Class22 ( obj_00723d6c_db7f_495a_9151_bd6f862bc52e o )  ) ) ( type_895a89bb_3ffd_4f91_baf2_cbfc81bd56f9_Class29 ( obj_00723d6c_db7f_495a_9151_bd6f862bc52e o )  ) ) ( type_895a89bb_3ffd_4f91_baf2_cbfc81bd56f9_Class39 ( obj_00723d6c_db7f_495a_9151_bd6f862bc52e o )  ) ) ( type_895a89bb_3ffd_4f91_baf2_cbfc81bd56f9_Class50 ( obj_00723d6c_db7f_495a_9151_bd6f862bc52e o )  ) ) ( type_895a89bb_3ffd_4f91_baf2_cbfc81bd56f9_Class41 ( obj_00723d6c_db7f_495a_9151_bd6f862bc52e o )  ) )):named c35))
(assert (! (exists ((o Int)) (and (and (and (and (and ( type_895a89bb_3ffd_4f91_baf2_cbfc81bd56f9_Class41 ( obj_00723d6c_db7f_495a_9151_bd6f862bc52e o )  )  ( type_895a89bb_3ffd_4f91_baf2_cbfc81bd56f9_Class45 ( obj_00723d6c_db7f_495a_9151_bd6f862bc52e o )  ) ) ( type_895a89bb_3ffd_4f91_baf2_cbfc81bd56f9_Class12 ( obj_00723d6c_db7f_495a_9151_bd6f862bc52e o )  ) ) ( type_895a89bb_3ffd_4f91_baf2_cbfc81bd56f9_Class33 ( obj_00723d6c_db7f_495a_9151_bd6f862bc52e o )  ) ) ( type_895a89bb_3ffd_4f91_baf2_cbfc81bd56f9_Class22 ( obj_00723d6c_db7f_495a_9151_bd6f862bc52e o )  ) ) ( type_895a89bb_3ffd_4f91_baf2_cbfc81bd56f9_Class39 ( obj_00723d6c_db7f_495a_9151_bd6f862bc52e o )  ) )):named c36))
(assert (! (exists ((o Int)) (and ( type_895a89bb_3ffd_4f91_baf2_cbfc81bd56f9_Class42 ( obj_00723d6c_db7f_495a_9151_bd6f862bc52e o )  )  ( type_895a89bb_3ffd_4f91_baf2_cbfc81bd56f9_Class39 ( obj_00723d6c_db7f_495a_9151_bd6f862bc52e o )  ) )):named c37))
(assert (! (exists ((o Int)) ( type_895a89bb_3ffd_4f91_baf2_cbfc81bd56f9_Class43 ( obj_00723d6c_db7f_495a_9151_bd6f862bc52e o )  ) ):named c38))
(assert (! (exists ((o Int)) (and (and (and (and (and (and (and ( type_895a89bb_3ffd_4f91_baf2_cbfc81bd56f9_Class44 ( obj_00723d6c_db7f_495a_9151_bd6f862bc52e o )  )  ( type_895a89bb_3ffd_4f91_baf2_cbfc81bd56f9_Class45 ( obj_00723d6c_db7f_495a_9151_bd6f862bc52e o )  ) ) ( type_895a89bb_3ffd_4f91_baf2_cbfc81bd56f9_Class12 ( obj_00723d6c_db7f_495a_9151_bd6f862bc52e o )  ) ) ( type_895a89bb_3ffd_4f91_baf2_cbfc81bd56f9_Class33 ( obj_00723d6c_db7f_495a_9151_bd6f862bc52e o )  ) ) ( type_895a89bb_3ffd_4f91_baf2_cbfc81bd56f9_Class22 ( obj_00723d6c_db7f_495a_9151_bd6f862bc52e o )  ) ) ( type_895a89bb_3ffd_4f91_baf2_cbfc81bd56f9_Class29 ( obj_00723d6c_db7f_495a_9151_bd6f862bc52e o )  ) ) ( type_895a89bb_3ffd_4f91_baf2_cbfc81bd56f9_Class39 ( obj_00723d6c_db7f_495a_9151_bd6f862bc52e o )  ) ) ( type_895a89bb_3ffd_4f91_baf2_cbfc81bd56f9_Class41 ( obj_00723d6c_db7f_495a_9151_bd6f862bc52e o )  ) )):named c39))
(assert (! (exists ((o Int)) (and (and (and (and ( type_895a89bb_3ffd_4f91_baf2_cbfc81bd56f9_Class45 ( obj_00723d6c_db7f_495a_9151_bd6f862bc52e o )  )  ( type_895a89bb_3ffd_4f91_baf2_cbfc81bd56f9_Class12 ( obj_00723d6c_db7f_495a_9151_bd6f862bc52e o )  ) ) ( type_895a89bb_3ffd_4f91_baf2_cbfc81bd56f9_Class33 ( obj_00723d6c_db7f_495a_9151_bd6f862bc52e o )  ) ) ( type_895a89bb_3ffd_4f91_baf2_cbfc81bd56f9_Class22 ( obj_00723d6c_db7f_495a_9151_bd6f862bc52e o )  ) ) ( type_895a89bb_3ffd_4f91_baf2_cbfc81bd56f9_Class39 ( obj_00723d6c_db7f_495a_9151_bd6f862bc52e o )  ) )):named c40))
(assert (! (exists ((o Int)) (and (and ( type_895a89bb_3ffd_4f91_baf2_cbfc81bd56f9_Class46 ( obj_00723d6c_db7f_495a_9151_bd6f862bc52e o )  )  ( type_895a89bb_3ffd_4f91_baf2_cbfc81bd56f9_Class39 ( obj_00723d6c_db7f_495a_9151_bd6f862bc52e o )  ) ) ( type_895a89bb_3ffd_4f91_baf2_cbfc81bd56f9_Class5 ( obj_00723d6c_db7f_495a_9151_bd6f862bc52e o )  ) )):named c41))
(assert (! (exists ((o Int)) ( type_895a89bb_3ffd_4f91_baf2_cbfc81bd56f9_Class47 ( obj_00723d6c_db7f_495a_9151_bd6f862bc52e o )  ) ):named c42))
(assert (! (exists ((o Int)) (and (and (and (and (and (and (and (and (and ( type_895a89bb_3ffd_4f91_baf2_cbfc81bd56f9_Class48 ( obj_00723d6c_db7f_495a_9151_bd6f862bc52e o )  )  ( type_895a89bb_3ffd_4f91_baf2_cbfc81bd56f9_Class45 ( obj_00723d6c_db7f_495a_9151_bd6f862bc52e o )  ) ) ( type_895a89bb_3ffd_4f91_baf2_cbfc81bd56f9_Class12 ( obj_00723d6c_db7f_495a_9151_bd6f862bc52e o )  ) ) ( type_895a89bb_3ffd_4f91_baf2_cbfc81bd56f9_Class55 ( obj_00723d6c_db7f_495a_9151_bd6f862bc52e o )  ) ) ( type_895a89bb_3ffd_4f91_baf2_cbfc81bd56f9_Class33 ( obj_00723d6c_db7f_495a_9151_bd6f862bc52e o )  ) ) ( type_895a89bb_3ffd_4f91_baf2_cbfc81bd56f9_Class22 ( obj_00723d6c_db7f_495a_9151_bd6f862bc52e o )  ) ) ( type_895a89bb_3ffd_4f91_baf2_cbfc81bd56f9_Class29 ( obj_00723d6c_db7f_495a_9151_bd6f862bc52e o )  ) ) ( type_895a89bb_3ffd_4f91_baf2_cbfc81bd56f9_Class39 ( obj_00723d6c_db7f_495a_9151_bd6f862bc52e o )  ) ) ( type_895a89bb_3ffd_4f91_baf2_cbfc81bd56f9_Class50 ( obj_00723d6c_db7f_495a_9151_bd6f862bc52e o )  ) ) ( type_895a89bb_3ffd_4f91_baf2_cbfc81bd56f9_Class41 ( obj_00723d6c_db7f_495a_9151_bd6f862bc52e o )  ) )):named c43))
(assert (! (exists ((o Int)) (and (and (and (and (and (and (and (and (and ( type_895a89bb_3ffd_4f91_baf2_cbfc81bd56f9_Class49 ( obj_00723d6c_db7f_495a_9151_bd6f862bc52e o )  )  ( type_895a89bb_3ffd_4f91_baf2_cbfc81bd56f9_Class45 ( obj_00723d6c_db7f_495a_9151_bd6f862bc52e o )  ) ) ( type_895a89bb_3ffd_4f91_baf2_cbfc81bd56f9_Class12 ( obj_00723d6c_db7f_495a_9151_bd6f862bc52e o )  ) ) ( type_895a89bb_3ffd_4f91_baf2_cbfc81bd56f9_Class55 ( obj_00723d6c_db7f_495a_9151_bd6f862bc52e o )  ) ) ( type_895a89bb_3ffd_4f91_baf2_cbfc81bd56f9_Class33 ( obj_00723d6c_db7f_495a_9151_bd6f862bc52e o )  ) ) ( type_895a89bb_3ffd_4f91_baf2_cbfc81bd56f9_Class22 ( obj_00723d6c_db7f_495a_9151_bd6f862bc52e o )  ) ) ( type_895a89bb_3ffd_4f91_baf2_cbfc81bd56f9_Class29 ( obj_00723d6c_db7f_495a_9151_bd6f862bc52e o )  ) ) ( type_895a89bb_3ffd_4f91_baf2_cbfc81bd56f9_Class39 ( obj_00723d6c_db7f_495a_9151_bd6f862bc52e o )  ) ) ( type_895a89bb_3ffd_4f91_baf2_cbfc81bd56f9_Class50 ( obj_00723d6c_db7f_495a_9151_bd6f862bc52e o )  ) ) ( type_895a89bb_3ffd_4f91_baf2_cbfc81bd56f9_Class41 ( obj_00723d6c_db7f_495a_9151_bd6f862bc52e o )  ) )):named c44))
(assert (! (exists ((o Int)) (and ( type_895a89bb_3ffd_4f91_baf2_cbfc81bd56f9_Class5 ( obj_00723d6c_db7f_495a_9151_bd6f862bc52e o )  )  ( type_895a89bb_3ffd_4f91_baf2_cbfc81bd56f9_Class39 ( obj_00723d6c_db7f_495a_9151_bd6f862bc52e o )  ) )):named c45))
(assert (! (exists ((o Int)) (and (and (and (and (and (and (and (and ( type_895a89bb_3ffd_4f91_baf2_cbfc81bd56f9_Class50 ( obj_00723d6c_db7f_495a_9151_bd6f862bc52e o )  )  ( type_895a89bb_3ffd_4f91_baf2_cbfc81bd56f9_Class45 ( obj_00723d6c_db7f_495a_9151_bd6f862bc52e o )  ) ) ( type_895a89bb_3ffd_4f91_baf2_cbfc81bd56f9_Class12 ( obj_00723d6c_db7f_495a_9151_bd6f862bc52e o )  ) ) ( type_895a89bb_3ffd_4f91_baf2_cbfc81bd56f9_Class55 ( obj_00723d6c_db7f_495a_9151_bd6f862bc52e o )  ) ) ( type_895a89bb_3ffd_4f91_baf2_cbfc81bd56f9_Class33 ( obj_00723d6c_db7f_495a_9151_bd6f862bc52e o )  ) ) ( type_895a89bb_3ffd_4f91_baf2_cbfc81bd56f9_Class22 ( obj_00723d6c_db7f_495a_9151_bd6f862bc52e o )  ) ) ( type_895a89bb_3ffd_4f91_baf2_cbfc81bd56f9_Class29 ( obj_00723d6c_db7f_495a_9151_bd6f862bc52e o )  ) ) ( type_895a89bb_3ffd_4f91_baf2_cbfc81bd56f9_Class39 ( obj_00723d6c_db7f_495a_9151_bd6f862bc52e o )  ) ) ( type_895a89bb_3ffd_4f91_baf2_cbfc81bd56f9_Class41 ( obj_00723d6c_db7f_495a_9151_bd6f862bc52e o )  ) )):named c46))
(assert (! (exists ((o Int)) (and (and (and (and (and (and ( type_895a89bb_3ffd_4f91_baf2_cbfc81bd56f9_Class51 ( obj_00723d6c_db7f_495a_9151_bd6f862bc52e o )  )  ( type_895a89bb_3ffd_4f91_baf2_cbfc81bd56f9_Class45 ( obj_00723d6c_db7f_495a_9151_bd6f862bc52e o )  ) ) ( type_895a89bb_3ffd_4f91_baf2_cbfc81bd56f9_Class12 ( obj_00723d6c_db7f_495a_9151_bd6f862bc52e o )  ) ) ( type_895a89bb_3ffd_4f91_baf2_cbfc81bd56f9_Class33 ( obj_00723d6c_db7f_495a_9151_bd6f862bc52e o )  ) ) ( type_895a89bb_3ffd_4f91_baf2_cbfc81bd56f9_Class22 ( obj_00723d6c_db7f_495a_9151_bd6f862bc52e o )  ) ) ( type_895a89bb_3ffd_4f91_baf2_cbfc81bd56f9_Class16 ( obj_00723d6c_db7f_495a_9151_bd6f862bc52e o )  ) ) ( type_895a89bb_3ffd_4f91_baf2_cbfc81bd56f9_Class39 ( obj_00723d6c_db7f_495a_9151_bd6f862bc52e o )  ) )):named c47))
(assert (! (exists ((o Int)) (and (and (and (and (and ( type_895a89bb_3ffd_4f91_baf2_cbfc81bd56f9_Class52 ( obj_00723d6c_db7f_495a_9151_bd6f862bc52e o )  )  ( type_895a89bb_3ffd_4f91_baf2_cbfc81bd56f9_Class45 ( obj_00723d6c_db7f_495a_9151_bd6f862bc52e o )  ) ) ( type_895a89bb_3ffd_4f91_baf2_cbfc81bd56f9_Class12 ( obj_00723d6c_db7f_495a_9151_bd6f862bc52e o )  ) ) ( type_895a89bb_3ffd_4f91_baf2_cbfc81bd56f9_Class33 ( obj_00723d6c_db7f_495a_9151_bd6f862bc52e o )  ) ) ( type_895a89bb_3ffd_4f91_baf2_cbfc81bd56f9_Class22 ( obj_00723d6c_db7f_495a_9151_bd6f862bc52e o )  ) ) ( type_895a89bb_3ffd_4f91_baf2_cbfc81bd56f9_Class39 ( obj_00723d6c_db7f_495a_9151_bd6f862bc52e o )  ) )):named c48))
(assert (! (exists ((o Int)) ( type_895a89bb_3ffd_4f91_baf2_cbfc81bd56f9_Class53 ( obj_00723d6c_db7f_495a_9151_bd6f862bc52e o )  ) ):named c49))
(assert (! (exists ((o Int)) ( type_895a89bb_3ffd_4f91_baf2_cbfc81bd56f9_Class54 ( obj_00723d6c_db7f_495a_9151_bd6f862bc52e o )  ) ):named c50))
(assert (! (exists ((o Int)) (and (and (and (and (and (and (and ( type_895a89bb_3ffd_4f91_baf2_cbfc81bd56f9_Class55 ( obj_00723d6c_db7f_495a_9151_bd6f862bc52e o )  )  ( type_895a89bb_3ffd_4f91_baf2_cbfc81bd56f9_Class45 ( obj_00723d6c_db7f_495a_9151_bd6f862bc52e o )  ) ) ( type_895a89bb_3ffd_4f91_baf2_cbfc81bd56f9_Class12 ( obj_00723d6c_db7f_495a_9151_bd6f862bc52e o )  ) ) ( type_895a89bb_3ffd_4f91_baf2_cbfc81bd56f9_Class33 ( obj_00723d6c_db7f_495a_9151_bd6f862bc52e o )  ) ) ( type_895a89bb_3ffd_4f91_baf2_cbfc81bd56f9_Class22 ( obj_00723d6c_db7f_495a_9151_bd6f862bc52e o )  ) ) ( type_895a89bb_3ffd_4f91_baf2_cbfc81bd56f9_Class29 ( obj_00723d6c_db7f_495a_9151_bd6f862bc52e o )  ) ) ( type_895a89bb_3ffd_4f91_baf2_cbfc81bd56f9_Class39 ( obj_00723d6c_db7f_495a_9151_bd6f862bc52e o )  ) ) ( type_895a89bb_3ffd_4f91_baf2_cbfc81bd56f9_Class41 ( obj_00723d6c_db7f_495a_9151_bd6f862bc52e o )  ) )):named c51))
(assert (! (exists ((o Int)) ( type_895a89bb_3ffd_4f91_baf2_cbfc81bd56f9_Class6 ( obj_00723d6c_db7f_495a_9151_bd6f862bc52e o )  ) ):named c52))
(assert (! (exists ((o Int)) (and (and (and (and (and (and (and (and (and ( type_895a89bb_3ffd_4f91_baf2_cbfc81bd56f9_Class7 ( obj_00723d6c_db7f_495a_9151_bd6f862bc52e o )  )  ( type_895a89bb_3ffd_4f91_baf2_cbfc81bd56f9_Class45 ( obj_00723d6c_db7f_495a_9151_bd6f862bc52e o )  ) ) ( type_895a89bb_3ffd_4f91_baf2_cbfc81bd56f9_Class12 ( obj_00723d6c_db7f_495a_9151_bd6f862bc52e o )  ) ) ( type_895a89bb_3ffd_4f91_baf2_cbfc81bd56f9_Class55 ( obj_00723d6c_db7f_495a_9151_bd6f862bc52e o )  ) ) ( type_895a89bb_3ffd_4f91_baf2_cbfc81bd56f9_Class33 ( obj_00723d6c_db7f_495a_9151_bd6f862bc52e o )  ) ) ( type_895a89bb_3ffd_4f91_baf2_cbfc81bd56f9_Class22 ( obj_00723d6c_db7f_495a_9151_bd6f862bc52e o )  ) ) ( type_895a89bb_3ffd_4f91_baf2_cbfc81bd56f9_Class29 ( obj_00723d6c_db7f_495a_9151_bd6f862bc52e o )  ) ) ( type_895a89bb_3ffd_4f91_baf2_cbfc81bd56f9_Class39 ( obj_00723d6c_db7f_495a_9151_bd6f862bc52e o )  ) ) ( type_895a89bb_3ffd_4f91_baf2_cbfc81bd56f9_Class50 ( obj_00723d6c_db7f_495a_9151_bd6f862bc52e o )  ) ) ( type_895a89bb_3ffd_4f91_baf2_cbfc81bd56f9_Class41 ( obj_00723d6c_db7f_495a_9151_bd6f862bc52e o )  ) )):named c53))
(assert (! (exists ((o Int)) (and ( type_895a89bb_3ffd_4f91_baf2_cbfc81bd56f9_Class8 ( obj_00723d6c_db7f_495a_9151_bd6f862bc52e o )  )  ( type_895a89bb_3ffd_4f91_baf2_cbfc81bd56f9_Class39 ( obj_00723d6c_db7f_495a_9151_bd6f862bc52e o )  ) )):named c54))
(assert (! (exists ((o Int)) ( type_895a89bb_3ffd_4f91_baf2_cbfc81bd56f9_Class9 ( obj_00723d6c_db7f_495a_9151_bd6f862bc52e o )  ) ):named c55))

 ;end of formula 